c colouring generated by benchmark framework
p edge 500 112437
v 1 122
v 2 155
v 3 80
v 4 116
v 5 124
v 6 100
v 7 154
v 8 76
v 9 45
v 10 72
v 11 127
v 12 22
v 13 9
v 14 101
v 15 49
v 16 108
v 17 2
v 18 143
v 19 53
v 20 10
v 21 50
v 22 10
v 23 59
v 24 34
v 25 12
v 26 75
v 27 135
v 28 134
v 29 22
v 30 34
v 31 83
v 32 133
v 33 108
v 34 97
v 35 10
v 36 3
v 37 16
v 38 95
v 39 138
v 40 29
v 41 46
v 42 25
v 43 42
v 44 122
v 45 106
v 46 96
v 47 149
v 48 116
v 49 0
v 50 85
v 51 47
v 52 61
v 53 153
v 54 43
v 55 15
v 56 85
v 57 144
v 58 160
v 59 103
v 60 95
v 61 87
v 62 112
v 63 139
v 64 84
v 65 52
v 66 141
v 67 32
v 68 102
v 69 80
v 70 65
v 71 99
v 72 12
v 73 107
v 74 7
v 75 85
v 76 52
v 77 107
v 78 124
v 79 69
v 80 40
v 81 121
v 82 27
v 83 17
v 84 120
v 85 136
v 86 31
v 87 27
v 88 105
v 89 77
v 90 106
v 91 94
v 92 91
v 93 105
v 94 111
v 95 11
v 96 70
v 97 43
v 98 53
v 99 19
v 100 21
v 101 128
v 102 13
v 103 33
v 104 96
v 105 81
v 106 51
v 107 4
v 108 51
v 109 86
v 110 73
v 111 57
v 112 130
v 113 147
v 114 31
v 115 62
v 116 123
v 117 119
v 118 77
v 119 98
v 120 41
v 121 24
v 122 107
v 123 51
v 124 131
v 125 158
v 126 94
v 127 44
v 128 72
v 129 73
v 130 61
v 131 153
v 132 60
v 133 28
v 134 81
v 135 48
v 136 123
v 137 92
v 138 21
v 139 110
v 140 48
v 141 88
v 142 140
v 143 113
v 144 151
v 145 89
v 146 140
v 147 62
v 148 113
v 149 152
v 150 67
v 151 146
v 152 17
v 153 94
v 154 132
v 155 64
v 156 35
v 157 92
v 158 117
v 159 97
v 160 25
v 161 160
v 162 106
v 163 65
v 164 15
v 165 59
v 166 118
v 167 107
v 168 18
v 169 67
v 170 124
v 171 87
v 172 44
v 173 110
v 174 109
v 175 68
v 176 50
v 177 2
v 178 14
v 179 52
v 180 34
v 181 109
v 182 79
v 183 40
v 184 66
v 185 49
v 186 64
v 187 103
v 188 11
v 189 39
v 190 88
v 191 59
v 192 114
v 193 15
v 194 101
v 195 167
v 196 39
v 197 102
v 198 114
v 199 41
v 200 9
v 201 26
v 202 91
v 203 60
v 204 4
v 205 156
v 206 8
v 207 57
v 208 29
v 209 72
v 210 58
v 211 78
v 212 119
v 213 7
v 214 162
v 215 38
v 216 159
v 217 121
v 218 81
v 219 165
v 220 66
v 221 56
v 222 100
v 223 78
v 224 84
v 225 24
v 226 20
v 227 19
v 228 32
v 229 5
v 230 54
v 231 4
v 232 106
v 233 76
v 234 164
v 235 38
v 236 56
v 237 61
v 238 48
v 239 1
v 240 146
v 241 21
v 242 61
v 243 141
v 244 120
v 245 109
v 246 104
v 247 115
v 248 164
v 249 129
v 250 118
v 251 77
v 252 115
v 253 135
v 254 130
v 255 158
v 256 30
v 257 101
v 258 134
v 259 79
v 260 97
v 261 112
v 262 60
v 263 16
v 264 153
v 265 0
v 266 11
v 267 142
v 268 148
v 269 1
v 270 68
v 271 98
v 272 26
v 273 83
v 274 29
v 275 63
v 276 6
v 277 27
v 278 2
v 279 41
v 280 111
v 281 166
v 282 99
v 283 17
v 284 23
v 285 36
v 286 28
v 287 161
v 288 46
v 289 82
v 290 42
v 291 128
v 292 125
v 293 91
v 294 13
v 295 151
v 296 141
v 297 126
v 298 45
v 299 38
v 300 126
v 301 64
v 302 20
v 303 66
v 304 62
v 305 35
v 306 128
v 307 87
v 308 142
v 309 5
v 310 146
v 311 38
v 312 145
v 313 64
v 314 71
v 315 44
v 316 6
v 317 108
v 318 33
v 319 93
v 320 6
v 321 72
v 322 70
v 323 39
v 324 155
v 325 156
v 326 149
v 327 18
v 328 63
v 329 93
v 330 86
v 331 134
v 332 135
v 333 156
v 334 3
v 335 129
v 336 143
v 337 122
v 338 54
v 339 144
v 340 57
v 341 99
v 342 46
v 343 18
v 344 45
v 345 77
v 346 68
v 347 9
v 348 55
v 349 50
v 350 33
v 351 49
v 352 137
v 353 82
v 354 90
v 355 35
v 356 137
v 357 70
v 358 123
v 359 43
v 360 125
v 361 12
v 362 90
v 363 26
v 364 138
v 365 55
v 366 74
v 367 162
v 368 36
v 369 125
v 370 84
v 371 11
v 372 131
v 373 60
v 374 23
v 375 80
v 376 155
v 377 14
v 378 65
v 379 3
v 380 143
v 381 56
v 382 161
v 383 40
v 384 130
v 385 40
v 386 88
v 387 113
v 388 30
v 389 71
v 390 37
v 391 8
v 392 163
v 393 89
v 394 67
v 395 147
v 396 138
v 397 121
v 398 28
v 399 120
v 400 157
v 401 160
v 402 98
v 403 55
v 404 128
v 405 90
v 406 53
v 407 119
v 408 75
v 409 140
v 410 152
v 411 111
v 412 127
v 413 78
v 414 119
v 415 133
v 416 53
v 417 137
v 418 63
v 419 132
v 420 0
v 421 42
v 422 69
v 423 148
v 424 92
v 425 131
v 426 130
v 427 104
v 428 20
v 429 82
v 430 159
v 431 31
v 432 120
v 433 58
v 434 1
v 435 36
v 436 54
v 437 69
v 438 123
v 439 144
v 440 76
v 441 24
v 442 81
v 443 5
v 444 25
v 445 14
v 446 104
v 447 154
v 448 100
v 449 16
v 450 37
v 451 74
v 452 150
v 453 95
v 454 126
v 455 148
v 456 150
v 457 71
v 458 139
v 459 96
v 460 39
v 461 7
v 462 73
v 463 20
v 464 163
v 465 112
v 466 93
v 467 63
v 468 136
v 469 102
v 470 93
v 471 32
v 472 115
v 473 24
v 474 145
v 475 85
v 476 127
v 477 150
v 478 129
v 479 157
v 480 86
v 481 74
v 482 47
v 483 22
v 484 103
v 485 136
v 486 25
v 487 23
v 488 73
v 489 97
v 490 114
v 491 30
v 492 57
v 493 47
v 494 79
v 495 118
v 496 19
v 497 49
v 498 117
v 499 13
v 500 16
